\ Model ProductsManufactuing
\ LP format - for model browsing. Use MPS format to capture full model detail.
Minimize
  2000 X[0,0] + 2000 X[0,1] + 2500 X[0,2] + 2500 X[0,3] + 2500 X[0,4]
   + 3000 X[0,5] + 3000 X[0,6] + 3000 X[0,7] + 2500 X[0,8] + 2500 X[0,9]
   + 2000 X[0,10] + 2000 X[0,11] + 2000 X[1,0] + 2000 X[1,1] + 2500 X[1,2]
   + 2500 X[1,3] + 2500 X[1,4] + 3000 X[1,5] + 3000 X[1,6] + 3000 X[1,7]
   + 2500 X[1,8] + 2500 X[1,9] + 2000 X[1,10] + 2000 X[1,11] + 2000 X[2,0]
   + 2000 X[2,1] + 2500 X[2,2] + 2500 X[2,3] + 2500 X[2,4] + 3000 X[2,5]
   + 3000 X[2,6] + 3000 X[2,7] + 2500 X[2,8] + 2500 X[2,9] + 2000 X[2,10]
   + 2000 X[2,11] + 6 R[0,0] + 6 R[0,1] + 6 R[0,2] + 6 R[0,3] + 6 R[0,4]
   + 6 R[0,5] + 6 R[0,6] + 6 R[0,7] + 6 R[0,8] + 6 R[0,9] + 6 R[0,10]
   + 6 R[0,11] + 8 R[1,0] + 8 R[1,1] + 8 R[1,2] + 8 R[1,3] + 8 R[1,4]
   + 8 R[1,5] + 8 R[1,6] + 8 R[1,7] + 8 R[1,8] + 8 R[1,9] + 8 R[1,10]
   + 8 R[1,11] + 10 R[2,0] + 10 R[2,1] + 10 R[2,2] + 10 R[2,3] + 10 R[2,4]
   + 10 R[2,5] + 10 R[2,6] + 10 R[2,7] + 10 R[2,8] + 10 R[2,9] + 10 R[2,10]
   + 10 R[2,11]
Subject To
 R0: - 15 X[0,0] + R[0,0] = -750
 R1: - 15 X[0,1] - R[0,0] + R[0,1] = -650
 R2: - 15 X[0,2] - R[0,1] + R[0,2] = -600
 R3: - 15 X[0,3] - R[0,2] + R[0,3] = -500
 R4: - 15 X[0,4] - R[0,3] + R[0,4] = -130.3
 R5: - 15 X[0,5] - R[0,4] + R[0,5] = -650
 R6: - 15 X[0,6] - R[0,5] + R[0,6] = -600
 R7: - 15 X[0,7] - R[0,6] + R[0,7] = -750
 R8: - 15 X[0,8] - R[0,7] + R[0,8] = -650
 R9: - 15 X[0,9] - R[0,8] + R[0,9] = -600
 R10: - 15 X[0,10] - R[0,9] + R[0,10] = -500
 R11: - 15 X[0,11] - R[0,10] + R[0,11] = -550
 R12: - 20 X[1,0] + R[1,0] = -550
 R13: - 20 X[1,1] - R[1,0] + R[1,1] = -500
 R14: - 20 X[1,2] - R[1,1] + R[1,2] = -450
 R15: - 20 X[1,3] - R[1,2] + R[1,3] = -275
 R16: - 20 X[1,4] - R[1,3] + R[1,4] = -350
 R17: - 20 X[1,5] - R[1,4] + R[1,5] = -300
 R18: - 20 X[1,6] - R[1,5] + R[1,6] = -500
 R19: - 20 X[1,7] - R[1,6] + R[1,7] = -600
 R20: - 20 X[1,8] - R[1,7] + R[1,8] = -500
 R21: - 20 X[1,9] - R[1,8] + R[1,9] = -400.6
 R22: - 20 X[1,10] - R[1,9] + R[1,10] = -300
 R23: - 20 X[1,11] - R[1,10] + R[1,11] = -250
 R24: - 10 X[2,0] + R[2,0] = -550
 R25: - 10 X[2,1] - R[2,0] + R[2,1] = -500
 R26: - 10 X[2,2] - R[2,1] + R[2,2] = -500
 R27: - 10 X[2,3] - R[2,2] + R[2,3] = -320.5
 R28: - 10 X[2,4] - R[2,3] + R[2,4] = -300
 R29: - 10 X[2,5] - R[2,4] + R[2,5] = -150.2
 R30: - 10 X[2,6] - R[2,5] + R[2,6] = -225
 R31: - 10 X[2,7] - R[2,6] + R[2,7] = -500
 R32: - 10 X[2,8] - R[2,7] + R[2,8] = -450
 R33: - 10 X[2,9] - R[2,8] + R[2,9] = -350
 R34: - 10 X[2,10] - R[2,9] + R[2,10] = -300
 R35: - 10 X[2,11] - R[2,10] + R[2,11] = -350
 con1[0,0]-: R[0,0] >= 0
 con1[0,1]-: R[0,1] >= 0
 con1[0,2]-: R[0,2] >= 0
 con1[0,3]-: R[0,3] >= 0
 con1[0,4]-: R[0,4] >= 0
 con1[0,5]-: R[0,5] >= 0
 con1[0,6]-: R[0,6] >= 0
 con1[0,7]-: R[0,7] >= 0
 con1[0,8]-: R[0,8] >= 0
 con1[0,9]-: R[0,9] >= 0
 con1[0,10]-: R[0,10] >= 0
 con1[0,11]-: R[0,11] >= 0
 con1[1,0]-: R[1,0] >= 0
 con1[1,1]-: R[1,1] >= 0
 con1[1,2]-: R[1,2] >= 0
 con1[1,3]-: R[1,3] >= 0
 con1[1,4]-: R[1,4] >= 0
 con1[1,5]-: R[1,5] >= 0
 con1[1,6]-: R[1,6] >= 0
 con1[1,7]-: R[1,7] >= 0
 con1[1,8]-: R[1,8] >= 0
 con1[1,9]-: R[1,9] >= 0
 con1[1,10]-: R[1,10] >= 0
 con1[1,11]-: R[1,11] >= 0
 con1[2,0]-: R[2,0] >= 0
 con1[2,1]-: R[2,1] >= 0
 con1[2,2]-: R[2,2] >= 0
 con1[2,3]-: R[2,3] >= 0
 con1[2,4]-: R[2,4] >= 0
 con1[2,5]-: R[2,5] >= 0
 con1[2,6]-: R[2,6] >= 0
 con1[2,7]-: R[2,7] >= 0
 con1[2,8]-: R[2,8] >= 0
 con1[2,9]-: R[2,9] >= 0
 con1[2,10]-: R[2,10] >= 0
 con1[2,11]-: R[2,11] >= 0
 R72: = 0
 R73: - X[0,0] + X[0,1] - X[1,0] + X[1,1] - X[2,0] + X[2,1] = 0
 R74: - X[0,0] + X[0,2] - X[1,0] + X[1,2] - X[2,0] + X[2,2] = 0
 R75: = 0
 R76: - X[0,3] + X[0,4] - X[1,3] + X[1,4] - X[2,3] + X[2,4] = 0
 R77: - X[0,3] + X[0,5] - X[1,3] + X[1,5] - X[2,3] + X[2,5] = 0
 R78: = 0
 R79: - X[0,6] + X[0,7] - X[1,6] + X[1,7] - X[2,6] + X[2,7] = 0
 R80: - X[0,6] + X[0,8] - X[1,6] + X[1,8] - X[2,6] + X[2,8] = 0
 R81: - X[0,6] + X[0,9] - X[1,6] + X[1,9] - X[2,6] + X[2,9] = 0
 R82: = 0
 R83: - X[0,9] + X[0,10] - X[1,9] + X[1,10] - X[2,9] + X[2,10] = 0
 R84: - X[0,9] + X[0,11] - X[1,9] + X[1,11] - X[2,9] + X[2,11] = 0
Bounds
Generals
 X[0,0] X[0,1] X[0,2] X[0,3] X[0,4] X[0,5] X[0,6] X[0,7] X[0,8] X[0,9]
 X[0,10] X[0,11] X[1,0] X[1,1] X[1,2] X[1,3] X[1,4] X[1,5] X[1,6] X[1,7]
 X[1,8] X[1,9] X[1,10] X[1,11] X[2,0] X[2,1] X[2,2] X[2,3] X[2,4] X[2,5]
 X[2,6] X[2,7] X[2,8] X[2,9] X[2,10] X[2,11]
End
